c Problem Statistics
c Number of variables: 100
c Number of clauses: 250
c Parse time (sec.) : 0.00
c
p cnf 100 76
-58 0
-92 0
83 0
25 0
30 0
6 0
29 0
-65 0
96 0
18 0
35 0
19 0
4 0
99 0
1 0
16 0
13 0
94 0
23 0
21 0
40 0
11 0
59 0
42 0
5 0
17 0
76 0
41 0
51 0
14 0
34 0
87 0
43 0
37 0
-56 0
-66 0
-46 0
-61 0
-67 0
-71 0
-84 0
-93 0
-100 0
63 0
89 0
68 0
69 0
81 0
53 0
55 0
60 0
62 0
64 0
70 0
74 0
75 0
82 0
85 0
86 0
88 0
95 0
97 0
98 0
54 0
57 0
72 0
73 0
77 0
79 0
80 0
91 0
52 0
78 0
90 0
10 31 50 0
8 22 44 0
c restarts              : 31
c conflicts             : 1              (inf /sec)
c decisions             : 704            (0.00 % random) (inf /sec)
c propagations          : 4024           (inf /sec)
c conflict literals     : 3              (0.00 % deleted)
c CPU time (sec.): 0
